&control
    calculation = 'vc-relax',
    restart_mode = 'from_scratch',
    prefix = 'fe',
    pseudo_dir = '.',
    outdir = '.',
    etot_conv_thr = 1.0e-5, 
    forc_conv_thr = 1.0e-4,
/
&system
    ibrav = 4,
    celldm(1) = 8.7,
    celldm(3) = 1.633, 
    nat = 2,
    ntyp = 1,
    ecutwfc = 30.0,
    ecutrho = 300.0, 
    occupations='smearing', smearing='mp', degauss=0.06
    
/
&electrons
    conv_thr = 1.0e-7, 
/
&ions
/
&cell
    cell_dofree = 'ibrav' 
/ 
ATOMIC_SPECIES
 Fe 55.845 Fe.pbe-spn-kjpaw_psl.0.2.1.UPF
ATOMIC_POSITIONS (crystal)
 Fe 0.00 0.00 0.00
 Fe 0.33333333 0.33333333 0.33333333
K_POINTS automatic
 4 4 4 0 0 0
