&control
    calculation = 'vc-relax',
    restart_mode = 'from_scratch',
    prefix = 'fe',
    pseudo_dir = '.',
    outdir = '.',
    etot_conv_thr = 1.0e-6, 
    forc_conv_thr = 1.0e-6,
    nstep = 100, 
/
&system
    ibrav = 3,
    celldm(1) = 9.7,
    nat = 1,
    ntyp = 1,
    ecutwfc = 30.0,
    ecutrho = 300.0, 
    occupations='smearing', smearing='mp', degauss=0.06
    
/
&electrons
    mixing_beta = 0.7,
    conv_thr = 1.0e-8, 
/
&ions
/
&cell
    cell_dofree = 'ibrav' 
/ 
ATOMIC_SPECIES
 Fe 55.845 Fe.pbe-spn-kjpaw_psl.0.2.1.UPF
ATOMIC_POSITIONS alat
 Fe 0.00 0.00 0.00
K_POINTS automatic
 4 4 4 0 0 0
