&CONTROL
    calculation = 'vc-relax' 
    outdir = './temp' 
    pseudo_dir = '.' 
    prefix = 'fe' 
/

&SYSTEM
    ibrav = 3
    celldm(1) = 3.9 
    nat = 1
    ntyp = 1

    ecutwfc = 80.0 
    ecutrho = 1080.0 
    nspin = 2
    starting_magnetization(1) = 0.7
    
    occupations = 'smearing' 
    smearing = 'mp' 
    degauss = 0.02 
/

&ELECTRONS
/

&IONS
/ 

&CELL
    cell_dofree = 'ibrav' 
/ 

ATOMIC_SPECIES 
    Fe  55.847  Fe.pbe-spn-rrkjus_psl.1.0.0.UPF
ATOMIC_POSITIONS
    Fe  0.00    0.00    0.00
K_POINTS (automatic) 
    8 8 8 0 0 0
