&BANDS
    prefix = 'Germanium' 
    outdir = './temp' 
    filband = 'germanium.bands.out' 
/ 
    