&control
    prefix = 'Germanium',
    pseudo_dir = '/Users/vinhtran/Documents/GitHub/DFT/First_Principles_Energy_Methods/Problem_1',
    outdir = '/Users/vinhtran/Documents/GitHub/DFT/First_Principles_Energy_Methods/Problem_1',
/
&system
    ibrav = 2,
    celldm(1) = 10.690181,
    nat = 2,
    ntyp = 1,
    ecutwfc = 20.0,
/
&electrons
/
ATOMIC_SPECIES
 Ge 72.64 ge_pbe_v1.4.uspp.F.UPF
ATOMIC_POSITIONS
 Ge 0.00 0.00 0.00
 Ge 0.25 0.25 0.25
K_POINTS automatic
 15 15 15 0 0 0
