&control
    prefix = 'Germanium',
    pseudo_dir = '.',
    outdir = './temp',
    tprnfor = .true. 
/
&system
    ibrav = 2,
    celldm(1) = 10.690181,
    nat = 2,
    ntyp = 1,
    ecutwfc = 80,
/
&electrons
/
ATOMIC_SPECIES
 Ge 72.64 ge_pbe_v1.4.uspp.F.UPF
ATOMIC_POSITIONS
 Ge 0.00 0.00 0.05
 Ge 0.25 0.25 0.25
K_POINTS automatic
 8 8 8 0 0 0
