&control
    calculation = 'scf' 
    prefix = 'Iron',
    pseudo_dir = '.',
    outdir = '.',
/
&system
    ibrav = 2,
    celldm(1) = 9.7,
    nat = 2,
    ntyp = 1,
    ecutwfc = 30.0,
/
&electrons
/
ATOMIC_SPECIES
 Fe 55.845 ge_pbe_v1.4.uspp.F.UPF
ATOMIC_POSITIONS
 Fe 0.00 0.00 0.00
 Fe 0.25 0.25 0.25
K_POINTS automatic
 8 8 8 0 0 0
