 &CONTROL
    calculation = 'vc-relax',
    prefix      = 'Fe',
    outdir      = '/tmp/',
    pseudo_dir  = '.',
 /

 &SYSTEM
    ibrav     =  3,
    celldm(1) =  4.8,
    nat       =  1,
    ntyp      =  1,

    ecutwfc =  30.0,
    ecutrho =  240.0,
    
    occupations =  'smearing',
    smearing    =  'methfessel-paxton',
    degauss     =  0.03,

    nspin = 2, 
    starting_magnetization(1) = 0.6,
 /

 &ELECTRONS
    conv_thr = 1d-10,
 /
 
 &IONS
 /
 &CELL
 /

ATOMIC_SPECIES
   Fe 55.845 Fe.pbe-spn-rrkjus_psl.1.0.0.UPF
   
ATOMIC_POSITIONS crystal
   Fe       0.000000000   0.000000000   0.000000

K_POINTS automatic
   6   6   4   1   1   1 
! coarse k-mesh as to speed-up


