&control
    prefix = 'Germanium',
    pseudo_dir = '.',
    outdir = './temp',
    tprnfor = .true. 
/
&system
    ibrav = 2,
    celldm(1) = 10.690181,
    nat = 2,
    ntyp = 1,
    ecutwfc = 80,
/
&electrons
/
ATOMIC_SPECIES
 Ge 72.64 ge_pbe_v1.4.uspp.F.UPF
ATOMIC_POSITIONS
 Ge 0.00 0.00 0.05
 Ge 0.25 0.25 0.25
K_POINTS automatic
14 14 14 0 0 0
13 13 13 0 0 0
12 12 12 0 0 0
11 11 11 0 0 0
10 10 10 0 0 0
9 9 9 0 0 0
8 8 8 0 0 0
7 7 7 0 0 0
6 6 6 0 0 0
5 5 5 0 0 0
4 4 4 0 0 0
3 3 3 0 0 0
2 2 2 0 0 0
1 1 1 0 0 0
 8 8 8 0 0 0
